n =  20 ;
E = [| 1 , 3 ,
| 1 , 5 ,
| 1 , 6 ,
| 1 , 8 ,
| 1 , 9 ,
| 1 , 10 ,
| 1 , 11 ,
| 1 , 13 ,
| 1 , 15 ,
| 1 , 20 ,
| 2 , 6 ,
| 2 , 12 ,
| 3 , 4 ,
| 3 , 12 ,
| 3 , 13 ,
| 3 , 14 ,
| 3 , 15 ,
| 3 , 16 ,
| 3 , 18 ,
| 3 , 20 ,
| 4 , 5 ,
| 4 , 6 ,
| 4 , 12 ,
| 4 , 14 ,
| 4 , 18 ,
| 5 , 8 ,
| 5 , 14 ,
| 5 , 15 ,
| 5 , 17 ,
| 5 , 19 ,
| 5 , 20 ,
| 6 , 7 ,
| 6 , 10 ,
| 6 , 11 ,
| 6 , 14 ,
| 6 , 15 ,
| 6 , 16 ,
| 6 , 19 ,
| 6 , 20 ,
| 7 , 8 ,
| 7 , 9 ,
| 7 , 10 ,
| 7 , 13 ,
| 8 , 10 ,
| 8 , 17 ,
| 8 , 20 ,
| 9 , 10 ,
| 9 , 13 ,
| 9 , 16 ,
| 9 , 19 ,
| 9 , 20 ,
| 10 , 14 ,
| 10 , 18 ,
| 11 , 13 ,
| 11 , 14 ,
| 11 , 17 ,
| 11 , 19 ,
| 11 , 20 ,
| 12 , 15 ,
| 12 , 16 ,
| 13 , 14 ,
| 13 , 17 ,
| 14 , 16 ,
| 14 , 18 ,
| 14 , 19 ,
| 15 , 17 ,
| 15 , 18 ,
| 15 , 19 ,
| 16 , 17 ,
| 16 , 20 ,
| 18 , 19 ,
| 18 , 20 ,
|];
e =  72 ;
